bound = 99999999;
n = 16;
p = 8;
num_edges = 240;
E = array2d(1..num_edges, 1..2, [
1,2
,1,3
,1,4
,1,5
,1,6
,1,7
,1,8
,1,9
,1,10
,1,11
,1,12
,1,13
,1,14
,1,15
,1,16
,2,1
,2,3
,2,4
,2,5
,2,6
,2,7
,2,8
,2,9
,2,10
,2,11
,2,12
,2,13
,2,14
,2,15
,2,16
,3,1
,3,2
,3,4
,3,5
,3,6
,3,7
,3,8
,3,9
,3,10
,3,11
,3,12
,3,13
,3,14
,3,15
,3,16
,4,1
,4,2
,4,3
,4,5
,4,6
,4,7
,4,8
,4,9
,4,10
,4,11
,4,12
,4,13
,4,14
,4,15
,4,16
,5,1
,5,2
,5,3
,5,4
,5,6
,5,7
,5,8
,5,9
,5,10
,5,11
,5,12
,5,13
,5,14
,5,15
,5,16
,6,1
,6,2
,6,3
,6,4
,6,5
,6,7
,6,8
,6,9
,6,10
,6,11
,6,12
,6,13
,6,14
,6,15
,6,16
,7,1
,7,2
,7,3
,7,4
,7,5
,7,6
,7,8
,7,9
,7,10
,7,11
,7,12
,7,13
,7,14
,7,15
,7,16
,8,1
,8,2
,8,3
,8,4
,8,5
,8,6
,8,7
,8,9
,8,10
,8,11
,8,12
,8,13
,8,14
,8,15
,8,16
,9,1
,9,2
,9,3
,9,4
,9,5
,9,6
,9,7
,9,8
,9,10
,9,11
,9,12
,9,13
,9,14
,9,15
,9,16
,10,1
,10,2
,10,3
,10,4
,10,5
,10,6
,10,7
,10,8
,10,9
,10,11
,10,12
,10,13
,10,14
,10,15
,10,16
,11,1
,11,2
,11,3
,11,4
,11,5
,11,6
,11,7
,11,8
,11,9
,11,10
,11,12
,11,13
,11,14
,11,15
,11,16
,12,1
,12,2
,12,3
,12,4
,12,5
,12,6
,12,7
,12,8
,12,9
,12,10
,12,11
,12,13
,12,14
,12,15
,12,16
,13,1
,13,2
,13,3
,13,4
,13,5
,13,6
,13,7
,13,8
,13,9
,13,10
,13,11
,13,12
,13,14
,13,15
,13,16
,14,1
,14,2
,14,3
,14,4
,14,5
,14,6
,14,7
,14,8
,14,9
,14,10
,14,11
,14,12
,14,13
,14,15
,14,16
,15,1
,15,2
,15,3
,15,4
,15,5
,15,6
,15,7
,15,8
,15,9
,15,10
,15,11
,15,12
,15,13
,15,14
,15,16
,16,1
,16,2
,16,3
,16,4
,16,5
,16,6
,16,7
,16,8
,16,9
,16,10
,16,11
,16,12
,16,13
,16,14
,16,15
]);
c=[
37,
12,
57,
17,
57,
8,
8,
6,
35,
15,
63,
15,
63,
15,
15,
37,
33,
58,
35,
59,
38,
38,
31,
5,
49,
62,
49,
62,
49,
49,
12,
33,
67,
27,
67,
20,
20,
10,
33,
27,
72,
27,
72,
27,
27,
57,
58,
67,
40,
0,
49,
49,
57,
53,
52,
6,
52,
6,
52,
52,
17,
35,
27,
40,
40,
10,
10,
17,
31,
17,
46,
17,
46,
17,
17,
57,
59,
67,
0,
40,
50,
50,
57,
53,
52,
6,
52,
6,
52,
52,
8,
38,
20,
49,
10,
50,
0,
12,
35,
10,
55,
10,
55,
10,
10,
8,
38,
20,
49,
10,
50,
0,
12,
35,
10,
55,
10,
55,
10,
10,
6,
31,
10,
57,
17,
57,
12,
12,
29,
21,
62,
21,
62,
21,
21,
35,
5,
33,
53,
31,
53,
35,
35,
29,
46,
56,
46,
56,
46,
46,
15,
49,
27,
52,
17,
52,
10,
10,
21,
46,
58,
0,
58,
0,
0,
63,
62,
72,
6,
46,
6,
55,
55,
62,
56,
58,
58,
0,
58,
58,
15,
49,
27,
52,
17,
52,
10,
10,
21,
46,
0,
58,
58,
0,
0,
63,
62,
72,
6,
46,
6,
55,
55,
62,
56,
58,
0,
58,
58,
58,
15,
49,
27,
52,
17,
52,
10,
10,
21,
46,
0,
58,
0,
58,
0,
15,
49,
27,
52,
17,
52,
10,
10,
21,
46,
0,
58,
0,
58,
0];
